1521986
31,22,52,33,57,18,10,14,44,62,39,51,35,68,53,37,50,28,36,8,15,58,9,59,16,63,2,17,27,45,65,48,4,20,47,13,54,1,32,40,5,19,49,23,60,29,56,42,12,24,61,3,21,30,25,41,6,64,67,38,7,43,46,55,34,11,66,26